NAME : usa13509
COMMENT : Cities with population at least 500 in the continental US.
COMMENT : Contributed by David Applegate and Andre Rohe, based on the
COMMENT : data set "US.lat-long" from the ftp site ftp.cs.toronto.edu.
COMMENT : The file US.lat-long.Z can be found in the directory /doc/geography.
TYPE : TSP
DIMENSION : 13509
EDGE_WEIGHT_TYPE : EUC_2D
NODE_COORD_SECTION
1 245552.778 817827.778
2 247133.333 810905.556
3 247205.556 810188.889
4 249238.889 806280.556
5 250111.111 805152.778
6 254475.000 804794.444
7 254683.333 804777.778
8 254950.000 804294.444
9 255622.222 803825.000
10 255802.778 803469.444


